letting initialStacks = [17, 10, 49, 46, 25, 32, 26, 37, 44, 27, 33, 31, 4, 7, 30, 18, 36, 3, 50, 39, 5, 42, 41, 28, 11, 12, 6, 8, 20, 29, 48, 47, 21, 16, 13, 43, 40, 14, 15, 24, 23, 45, 22, 1, 34, 35, 51, 2, 19, 9, 38]
